DIMENSION: 22
EDGE_WEIGHT_TYPE: EXPLICIT
EDGE_WEIGHT_FORMAT: FULL_MATRIX
EDGE_WEIGHT_SECTION:
32767 32767 14 56 7 32767 32767 42 45 37 17 32767 32767 32767 32767 32767 53 63 56 24 32767 32767 
32767 32767 32767 32767 32767 32767 32767 32767 40 32767 32767 32767 32767 32767 18 32767 32767 32767 32767 32767 76 32767 
14 32767 32767 32767 31 32767 32767 32767 61 32767 32767 29 32767 32767 63 32767 32767 4 32767 73 58 49 
56 32767 32767 32767 66 32767 32767 32767 32767 58 32767 45 25 17 32767 32767 99 6 32767 32767 52 32767 
7 32767 31 66 32767 32767 32767 92 32767 9 43 68 32767 32767 32767 32767 32767 32767 53 40 32767 32767 
32767 32767 32767 32767 32767 32767 32767 32767 32767 28 32767 50 73 32767 48 27 32767 45 38 32767 32767 32767 
32767 32767 32767 32767 32767 32767 32767 32767 32767 32767 32767 32767 32767 81 91 32767 18 32767 19 32767 99 32767 
42 32767 32767 32767 92 32767 32767 32767 32767 68 32767 32767 93 32767 32767 32767 26 32767 73 32767 32767 10 
45 40 61 32767 32767 32767 32767 32767 32767 22 32767 92 65 32767 32767 32767 32767 32767 32767 10 41 32767 
37 32767 32767 58 9 28 32767 68 22 32767 18 32767 32767 32767 32767 32767 32767 38 32767 47 32767 32767 
17 32767 32767 32767 43 32767 32767 32767 32767 18 32767 6 32767 32767 32767 32767 61 32767 26 32767 32767 32767 
32767 32767 29 45 68 50 32767 32767 92 32767 6 32767 32767 32767 32767 27 36 32767 32767 20 32767 32767 
32767 32767 32767 25 32767 73 32767 93 65 32767 32767 32767 32767 32767 32767 32767 32767 28 86 32767 32767 32767 
32767 32767 32767 17 32767 32767 81 32767 32767 32767 32767 32767 32767 32767 17 86 53 32767 20 32767 32767 32767 
32767 18 63 32767 32767 48 91 32767 32767 32767 32767 32767 32767 17 32767 46 32767 36 32767 32767 90 32767 
32767 32767 32767 32767 32767 27 32767 32767 32767 32767 32767 27 32767 86 46 32767 32767 32767 32767 32767 51 35 
53 32767 32767 99 32767 32767 18 26 32767 32767 61 36 32767 53 32767 32767 32767 29 32767 32767 32767 90 
63 32767 4 6 32767 45 32767 32767 32767 38 32767 32767 28 32767 36 32767 29 32767 32767 61 31 4 
56 32767 32767 32767 53 38 19 73 32767 32767 26 32767 86 20 32767 32767 32767 32767 32767 65 32767 32767 
24 32767 73 32767 40 32767 32767 32767 10 47 32767 20 32767 32767 32767 32767 32767 61 65 32767 23 85 
32767 76 58 52 32767 32767 99 32767 41 32767 32767 32767 32767 32767 90 51 32767 31 32767 23 32767 21 
32767 32767 49 32767 32767 32767 32767 10 32767 32767 32767 32767 32767 32767 32767 35 90 4 32767 85 21 32767 
EOF